% Auto-generated by scripts/generate_dzn.py
% problem_type   = regex
% instance       = regex_58
% source_json    = instances_json/1_medium_blowup/regex_58.json
% blowup         = 4.25
% representation = DFA

mode = 0;

var_count = 20;
Q = 34;
S = 2;
q0 = 1;
F = {22, 23, 24, 25, 26, 27, 28, 29, 30, 31, 32, 33, 34};
d_dfa = array2d(1..34, 1..2, [
  2, 1,
  2, 3,
  5, 4,
  7, 6,
  7, 8,
  10, 9,
  10, 11,
  13, 12,
  15, 14,
  15, 16,
  18, 17,
  20, 19,
  20, 21,
  23, 22,
  23, 24,
  26, 25,
  28, 27,
  28, 29,
  31, 30,
  31, 32,
  34, 33,
  2, 1,
  2, 3,
  5, 4,
  7, 6,
  7, 8,
  10, 9,
  10, 11,
  13, 12,
  15, 14,
  15, 16,
  18, 17,
  20, 19,
  20, 21
]);
d_nfa = array2d(1..34, 1..2, [
  {}, {},
  {}, {},
  {}, {},
  {}, {},
  {}, {},
  {}, {},
  {}, {},
  {}, {},
  {}, {},
  {}, {},
  {}, {},
  {}, {},
  {}, {},
  {}, {},
  {}, {},
  {}, {},
  {}, {},
  {}, {},
  {}, {},
  {}, {},
  {}, {},
  {}, {},
  {}, {},
  {}, {},
  {}, {},
  {}, {},
  {}, {},
  {}, {},
  {}, {},
  {}, {},
  {}, {},
  {}, {},
  {}, {},
  {}, {}
]);
